n_res = 4;
rc = [ 0, 0, 0, 0 ];
n_tasks = 30;
d = [ 1, 2, 10, 9, 5, 7, 3, 8, 2, 3, 1, 2, 9, 5, 2, 4, 4, 5, 7, 10, 8, 6, 5, 5, 10, 2, 5, 10, 9, 3 ];
rr = [| 0, 0, 0, 0, 0, 0, 0, 0, 0, 0, 0, 0, 0, 0, 0, 0, 0, 0, 0, 0, 0, 0, 0, 0, 0, 0, 0, 0, 0, 0
      | 0, 0, 0, 0, 0, 0, 0, 0, 0, 0, 0, 0, 0, 0, 0, 0, 0, 0, 0, 0, 0, 0, 0, 0, 0, 0, 0, 0, 0, 0
      | 0, 0, 0, 0, 0, 0, 0, 0, 0, 0, 0, 0, 0, 0, 0, 0, 0, 0, 0, 0, 0, 0, 0, 0, 0, 0, 0, 0, 0, 0
      | 0, 0, 0, 0, 0, 0, 0, 0, 0, 0, 0, 0, 0, 0, 0, 0, 0, 0, 0, 0, 0, 0, 0, 0, 0, 0, 0, 0, 0, 0 |];
suc = [ { 5, 9, 10 },
       { 4, 6, 30 },
       { 7, 13, 19 },
       { 8, 11, 29 },
       { 28 },
       { 21, 22 },
       { 12, 15 },
       { 14, 25 },
       { 16, 17 },
       { 18 },
       { 14, 27 },
       { 16, 18 },
       { 14, 16 },
       { 21 },
       { 17, 18, 24 },
       { 20, 22 },
       { 25, 26, 29 },
       { 23 },
       { 22, 23, 29 },
       { 23, 24, 30 },
       { 26 },
       { 24 },
       { 27 },
       { 25, 26 },
       { 27 },
       { 28 },
       { 28 },
       {  },
       {  },
       {  } ];
